50
8625

308 527
509 61
223 279
501 992
177 95
131 814
866 121
203 501
809 544
743 906
81 989
905 301
48 952
883 342
366 305
348 67
480 879
592 254
923 93
152 444
224 576
542 282
442 680
775 438
359 911
772 955
770 197
442 47
354 470
732 151
462 747
199 535
752 272
424 275
143 912
598 429
888 99
307 75
116 968
18 459
16 282
678 197
886 616
281 711
427 449
499 730
951 390
626 147
655 893
135 218
